data/lp_files/q3/85_9.lp
\ Model foo
\ LP format - for model browsing. Use MPS format to capture full model detail.
Minimize
  z
Subject To
 allocateEach[1]: x[1,1] + x[2,1] + x[3,1] + x[4,1] + x[5,1] = 1
 allocateEach[2]: x[1,2] + x[2,2] + x[3,2] + x[4,2] + x[5,2] = 1
 allocateEach[3]: x[1,3] + x[2,3] + x[3,3] + x[4,3] + x[5,3] = 1
 allocateEach[4]: x[1,4] + x[2,4] + x[3,4] + x[4,4] + x[5,4] = 1
 allocateEach[5]: x[1,5] + x[2,5] + x[3,5] + x[4,5] + x[5,5] = 1
 allocateAllCash: cashProportion[1] + cashProportion[2] + cashProportion[3]
   + cashProportion[4] + cashProportion[5] = 1
 findWorstP[1,2]: z + 0.2663541444704881 cashProportion[1]
   - 0.2663541444704881 cashProportion[2] + 0.2507990624334115 x[1,1]
   + 0.040911996590667 x[1,2] + 0.2313818453015129 x[1,3]
   + 0.1971287023226082 x[1,4] + 0.0134242488813126 x[1,5]
   - 0.2507990624334115 x[2,1] - 0.040911996590667 x[2,2]
   - 0.2313818453015129 x[2,3] - 0.1971287023226082 x[2,4]
   - 0.0134242488813126 x[2,5] >= 0
 findWorstP[1,3]: z + 0.2663541444704881 cashProportion[1]
   - 0.2663541444704881 cashProportion[3] + 0.2507990624334115 x[1,1]
   + 0.040911996590667 x[1,2] + 0.2313818453015129 x[1,3]
   + 0.1971287023226082 x[1,4] + 0.0134242488813126 x[1,5]
   - 0.2507990624334115 x[3,1] - 0.040911996590667 x[3,2]
   - 0.2313818453015129 x[3,3] - 0.1971287023226082 x[3,4]
   - 0.0134242488813126 x[3,5] >= 0
 findWorstP[1,4]: z + 0.2663541444704881 cashProportion[1]
   - 0.2663541444704881 cashProportion[4] + 0.2507990624334115 x[1,1]
   + 0.040911996590667 x[1,2] + 0.2313818453015129 x[1,3]
   + 0.1971287023226082 x[1,4] + 0.0134242488813126 x[1,5]
   - 0.2507990624334115 x[4,1] - 0.040911996590667 x[4,2]
   - 0.2313818453015129 x[4,3] - 0.1971287023226082 x[4,4]
   - 0.0134242488813126 x[4,5] >= 0
 findWorstP[1,5]: z + 0.2663541444704881 cashProportion[1]
   - 0.2663541444704881 cashProportion[5] + 0.2507990624334115 x[1,1]
   + 0.040911996590667 x[1,2] + 0.2313818453015129 x[1,3]
   + 0.1971287023226082 x[1,4] + 0.0134242488813126 x[1,5]
   - 0.2507990624334115 x[5,1] - 0.040911996590667 x[5,2]
   - 0.2313818453015129 x[5,3] - 0.1971287023226082 x[5,4]
   - 0.0134242488813126 x[5,5] >= 0
 findWorstP[2,1]: z - 0.2935822911161999 cashProportion[1]
   + 0.2935822911161999 cashProportion[2] - 0.0274499442193647 x[1,1]
   - 0.1599142739709941 x[1,2] - 0.2378016558041219 x[1,3]
   - 0.1477306088896718 x[1,4] - 0.1335212259996477 x[1,5]
   + 0.0274499442193647 x[2,1] + 0.1599142739709941 x[2,2]
   + 0.2378016558041219 x[2,3] + 0.1477306088896718 x[2,4]
   + 0.1335212259996477 x[2,5] >= 0
 findWorstP[2,3]: z + 0.2935822911161999 cashProportion[2]
   - 0.2935822911161999 cashProportion[3] + 0.0274499442193647 x[2,1]
   + 0.1599142739709941 x[2,2] + 0.2378016558041219 x[2,3]
   + 0.1477306088896718 x[2,4] + 0.1335212259996477 x[2,5]
   - 0.0274499442193647 x[3,1] - 0.1599142739709941 x[3,2]
   - 0.2378016558041219 x[3,3] - 0.1477306088896718 x[3,4]
   - 0.1335212259996477 x[3,5] >= 0
 findWorstP[2,4]: z + 0.2935822911161999 cashProportion[2]
   - 0.2935822911161999 cashProportion[4] + 0.0274499442193647 x[2,1]
   + 0.1599142739709941 x[2,2] + 0.2378016558041219 x[2,3]
   + 0.1477306088896718 x[2,4] + 0.1335212259996477 x[2,5]
   - 0.0274499442193647 x[4,1] - 0.1599142739709941 x[4,2]
   - 0.2378016558041219 x[4,3] - 0.1477306088896718 x[4,4]
   - 0.1335212259996477 x[4,5] >= 0
 findWorstP[2,5]: z + 0.2935822911161999 cashProportion[2]
   - 0.2935822911161999 cashProportion[5] + 0.0274499442193647 x[2,1]
   + 0.1599142739709941 x[2,2] + 0.2378016558041219 x[2,3]
   + 0.1477306088896718 x[2,4] + 0.1335212259996477 x[2,5]
   - 0.0274499442193647 x[5,1] - 0.1599142739709941 x[5,2]
   - 0.2378016558041219 x[5,3] - 0.1477306088896718 x[5,4]
   - 0.1335212259996477 x[5,5] >= 0
 findWorstP[3,1]: z - 0.2409870830923463 cashProportion[1]
   + 0.2409870830923463 cashProportion[3] - 0.1769327164064006 x[1,1]
   - 0.210454019664546 x[1,2] - 0.1415076151918257 x[1,3]
   - 0.055571621361095 x[1,4] - 0.1745469442837864 x[1,5]
   + 0.1769327164064006 x[3,1] + 0.210454019664546 x[3,2]
   + 0.1415076151918257 x[3,3] + 0.055571621361095 x[3,4]
   + 0.1745469442837864 x[3,5] >= 0
 findWorstP[3,2]: z - 0.2409870830923463 cashProportion[2]
   + 0.2409870830923463 cashProportion[3] - 0.1769327164064006 x[2,1]
   - 0.210454019664546 x[2,2] - 0.1415076151918257 x[2,3]
   - 0.055571621361095 x[2,4] - 0.1745469442837864 x[2,5]
   + 0.1769327164064006 x[3,1] + 0.210454019664546 x[3,2]
   + 0.1415076151918257 x[3,3] + 0.055571621361095 x[3,4]
   + 0.1745469442837864 x[3,5] >= 0
 findWorstP[3,4]: z + 0.2409870830923463 cashProportion[3]
   - 0.2409870830923463 cashProportion[4] + 0.1769327164064006 x[3,1]
   + 0.210454019664546 x[3,2] + 0.1415076151918257 x[3,3]
   + 0.055571621361095 x[3,4] + 0.1745469442837864 x[3,5]
   - 0.1769327164064006 x[4,1] - 0.210454019664546 x[4,2]
   - 0.1415076151918257 x[4,3] - 0.055571621361095 x[4,4]
   - 0.1745469442837864 x[4,5] >= 0
 findWorstP[3,5]: z + 0.2409870830923463 cashProportion[3]
   - 0.2409870830923463 cashProportion[5] + 0.1769327164064006 x[3,1]
   + 0.210454019664546 x[3,2] + 0.1415076151918257 x[3,3]
   + 0.055571621361095 x[3,4] + 0.1745469442837864 x[3,5]
   - 0.1769327164064006 x[5,1] - 0.210454019664546 x[5,2]
   - 0.1415076151918257 x[5,3] - 0.055571621361095 x[5,4]
   - 0.1745469442837864 x[5,5] >= 0
 findWorstP[4,1]: z - 0.2208968411751712 cashProportion[1]
   + 0.2208968411751712 cashProportion[4] - 0.181245858184228 x[1,1]
   - 0.2163684559310802 x[1,2] - 0.1891539650982991 x[1,3]
   - 0.0728517782195715 x[1,4] - 0.1194831013916501 x[1,5]
   + 0.181245858184228 x[4,1] + 0.2163684559310802 x[4,2]
   + 0.1891539650982991 x[4,3] + 0.0728517782195715 x[4,4]
   + 0.1194831013916501 x[4,5] >= 0
 findWorstP[4,2]: z - 0.2208968411751712 cashProportion[2]
   + 0.2208968411751712 cashProportion[4] - 0.181245858184228 x[2,1]
   - 0.2163684559310802 x[2,2] - 0.1891539650982991 x[2,3]
   - 0.0728517782195715 x[2,4] - 0.1194831013916501 x[2,5]
   + 0.181245858184228 x[4,1] + 0.2163684559310802 x[4,2]
   + 0.1891539650982991 x[4,3] + 0.0728517782195715 x[4,4]
   + 0.1194831013916501 x[4,5] >= 0
 findWorstP[4,3]: z - 0.2208968411751712 cashProportion[3]
   + 0.2208968411751712 cashProportion[4] - 0.181245858184228 x[3,1]
   - 0.2163684559310802 x[3,2] - 0.1891539650982991 x[3,3]
   - 0.0728517782195715 x[3,4] - 0.1194831013916501 x[3,5]
   + 0.181245858184228 x[4,1] + 0.2163684559310802 x[4,2]
   + 0.1891539650982991 x[4,3] + 0.0728517782195715 x[4,4]
   + 0.1194831013916501 x[4,5] >= 0
 findWorstP[4,5]: z + 0.2208968411751712 cashProportion[4]
   - 0.2208968411751712 cashProportion[5] + 0.181245858184228 x[4,1]
   + 0.2163684559310802 x[4,2] + 0.1891539650982991 x[4,3]
   + 0.0728517782195715 x[4,4] + 0.1194831013916501 x[4,5]
   - 0.181245858184228 x[5,1] - 0.2163684559310802 x[5,2]
   - 0.1891539650982991 x[5,3] - 0.0728517782195715 x[5,4]
   - 0.1194831013916501 x[5,5] >= 0
 findWorstP[5,1]: z - 0.2139861336985364 cashProportion[1]
   + 0.2139861336985364 cashProportion[5] - 0.1937002482239151 x[1,1]
   - 0.0668706667807926 x[1,2] - 0.1901480784045194 x[1,3]
   - 0.1919883591543268 x[1,4] - 0.1433065137379098 x[1,5]
   + 0.1937002482239151 x[5,1] + 0.0668706667807926 x[5,2]
   + 0.1901480784045194 x[5,3] + 0.1919883591543268 x[5,4]
   + 0.1433065137379098 x[5,5] >= 0
 findWorstP[5,2]: z - 0.2139861336985364 cashProportion[2]
   + 0.2139861336985364 cashProportion[5] - 0.1937002482239151 x[2,1]
   - 0.0668706667807926 x[2,2] - 0.1901480784045194 x[2,3]
   - 0.1919883591543268 x[2,4] - 0.1433065137379098 x[2,5]
   + 0.1937002482239151 x[5,1] + 0.0668706667807926 x[5,2]
   + 0.1901480784045194 x[5,3] + 0.1919883591543268 x[5,4]
   + 0.1433065137379098 x[5,5] >= 0
 findWorstP[5,3]: z - 0.2139861336985364 cashProportion[3]
   + 0.2139861336985364 cashProportion[5] - 0.1937002482239151 x[3,1]
   - 0.0668706667807926 x[3,2] - 0.1901480784045194 x[3,3]
   - 0.1919883591543268 x[3,4] - 0.1433065137379098 x[3,5]
   + 0.1937002482239151 x[5,1] + 0.0668706667807926 x[5,2]
   + 0.1901480784045194 x[5,3] + 0.1919883591543268 x[5,4]
   + 0.1433065137379098 x[5,5] >= 0
 findWorstP[5,4]: z - 0.2139861336985364 cashProportion[4]
   + 0.2139861336985364 cashProportion[5] - 0.1937002482239151 x[4,1]
   - 0.0668706667807926 x[4,2] - 0.1901480784045194 x[4,3]
   - 0.1919883591543268 x[4,4] - 0.1433065137379098 x[4,5]
   + 0.1937002482239151 x[5,1] + 0.0668706667807926 x[5,2]
   + 0.1901480784045194 x[5,3] + 0.1919883591543268 x[5,4]
   + 0.1433065137379098 x[5,5] >= 0
Bounds
 z <= 1
 -infinity <= cashProportion[1] <= 1
 -infinity <= cashProportion[2] <= 1
 -infinity <= cashProportion[3] <= 1
 -infinity <= cashProportion[4] <= 1
 -infinity <= cashProportion[5] <= 1
Binaries
 x[1,1] x[1,2] x[1,3] x[1,4] x[1,5] x[2,1] x[2,2] x[2,3] x[2,4] x[2,5]
 x[3,1] x[3,2] x[3,3] x[3,4] x[3,5] x[4,1] x[4,2] x[4,3] x[4,4] x[4,5]
 x[5,1] x[5,2] x[5,3] x[5,4] x[5,5]
End
