data/mps_files/pEFS/85_9.mps
NAME foo
ROWS
 N  OBJ
 E  allocateEach[1]
 E  allocateEach[2]
 E  allocateEach[3]
 E  allocateEach[4]
 E  allocateEach[5]
 E  allocateAllCash
 G  findWorstP[1,2]
 G  findWorstP[1,3]
 G  findWorstP[1,4]
 G  findWorstP[1,5]
 G  findWorstP[2,1]
 G  findWorstP[2,3]
 G  findWorstP[2,4]
 G  findWorstP[2,5]
 G  findWorstP[3,1]
 G  findWorstP[3,2]
 G  findWorstP[3,4]
 G  findWorstP[3,5]
 G  findWorstP[4,1]
 G  findWorstP[4,2]
 G  findWorstP[4,3]
 G  findWorstP[4,5]
 G  findWorstP[5,1]
 G  findWorstP[5,2]
 G  findWorstP[5,3]
 G  findWorstP[5,4]
COLUMNS
    z         OBJ       1
    z         findWorstP[1,2]  1
    z         findWorstP[1,3]  1
    z         findWorstP[1,4]  1
    z         findWorstP[1,5]  1
    z         findWorstP[2,1]  1
    z         findWorstP[2,3]  1
    z         findWorstP[2,4]  1
    z         findWorstP[2,5]  1
    z         findWorstP[3,1]  1
    z         findWorstP[3,2]  1
    z         findWorstP[3,4]  1
    z         findWorstP[3,5]  1
    z         findWorstP[4,1]  1
    z         findWorstP[4,2]  1
    z         findWorstP[4,3]  1
    z         findWorstP[4,5]  1
    z         findWorstP[5,1]  1
    z         findWorstP[5,2]  1
    z         findWorstP[5,3]  1
    z         findWorstP[5,4]  1
    cashProportion[1]  allocateAllCash  1
    cashProportion[1]  findWorstP[1,2]  2.6635414447048805e-01
    cashProportion[1]  findWorstP[1,3]  2.6635414447048805e-01
    cashProportion[1]  findWorstP[1,4]  2.6635414447048805e-01
    cashProportion[1]  findWorstP[1,5]  2.6635414447048805e-01
    cashProportion[1]  findWorstP[2,1]  -2.9358229111619993e-01
    cashProportion[1]  findWorstP[3,1]  -2.4098708309234629e-01
    cashProportion[1]  findWorstP[4,1]  -2.2089684117517125e-01
    cashProportion[1]  findWorstP[5,1]  -2.1398613369853642e-01
    cashProportion[2]  allocateAllCash  1
    cashProportion[2]  findWorstP[1,2]  -2.6635414447048805e-01
    cashProportion[2]  findWorstP[2,1]  2.9358229111619993e-01
    cashProportion[2]  findWorstP[2,3]  2.9358229111619993e-01
    cashProportion[2]  findWorstP[2,4]  2.9358229111619993e-01
    cashProportion[2]  findWorstP[2,5]  2.9358229111619993e-01
    cashProportion[2]  findWorstP[3,2]  -2.4098708309234629e-01
    cashProportion[2]  findWorstP[4,2]  -2.2089684117517125e-01
    cashProportion[2]  findWorstP[5,2]  -2.1398613369853642e-01
    cashProportion[3]  allocateAllCash  1
    cashProportion[3]  findWorstP[1,3]  -2.6635414447048805e-01
    cashProportion[3]  findWorstP[2,3]  -2.9358229111619993e-01
    cashProportion[3]  findWorstP[3,1]  2.4098708309234629e-01
    cashProportion[3]  findWorstP[3,2]  2.4098708309234629e-01
    cashProportion[3]  findWorstP[3,4]  2.4098708309234629e-01
    cashProportion[3]  findWorstP[3,5]  2.4098708309234629e-01
    cashProportion[3]  findWorstP[4,3]  -2.2089684117517125e-01
    cashProportion[3]  findWorstP[5,3]  -2.1398613369853642e-01
    cashProportion[4]  allocateAllCash  1
    cashProportion[4]  findWorstP[1,4]  -2.6635414447048805e-01
    cashProportion[4]  findWorstP[2,4]  -2.9358229111619993e-01
    cashProportion[4]  findWorstP[3,4]  -2.4098708309234629e-01
    cashProportion[4]  findWorstP[4,1]  2.2089684117517125e-01
    cashProportion[4]  findWorstP[4,2]  2.2089684117517125e-01
    cashProportion[4]  findWorstP[4,3]  2.2089684117517125e-01
    cashProportion[4]  findWorstP[4,5]  2.2089684117517125e-01
    cashProportion[4]  findWorstP[5,4]  -2.1398613369853642e-01
    cashProportion[5]  allocateAllCash  1
    cashProportion[5]  findWorstP[1,5]  -2.6635414447048805e-01
    cashProportion[5]  findWorstP[2,5]  -2.9358229111619993e-01
    cashProportion[5]  findWorstP[3,5]  -2.4098708309234629e-01
    cashProportion[5]  findWorstP[4,5]  -2.2089684117517125e-01
    cashProportion[5]  findWorstP[5,1]  2.1398613369853642e-01
    cashProportion[5]  findWorstP[5,2]  2.1398613369853642e-01
    cashProportion[5]  findWorstP[5,3]  2.1398613369853642e-01
    cashProportion[5]  findWorstP[5,4]  2.1398613369853642e-01
    MARKER    'MARKER'                 'INTORG'
    x[1,1]    allocateEach[1]  1
    x[1,1]    findWorstP[1,2]  2.5079906243341149e-01
    x[1,1]    findWorstP[1,3]  2.5079906243341149e-01
    x[1,1]    findWorstP[1,4]  2.5079906243341149e-01
    x[1,1]    findWorstP[1,5]  2.5079906243341149e-01
    x[1,1]    findWorstP[2,1]  -2.7449944219364690e-02
    x[1,1]    findWorstP[3,1]  -1.7693271640640060e-01
    x[1,1]    findWorstP[4,1]  -1.8124585818422798e-01
    x[1,1]    findWorstP[5,1]  -1.9370024822391513e-01
    x[1,2]    allocateEach[2]  1
    x[1,2]    findWorstP[1,2]  4.0911996590666952e-02
    x[1,2]    findWorstP[1,3]  4.0911996590666952e-02
    x[1,2]    findWorstP[1,4]  4.0911996590666952e-02
    x[1,2]    findWorstP[1,5]  4.0911996590666952e-02
    x[1,2]    findWorstP[2,1]  -1.5991427397099406e-01
    x[1,2]    findWorstP[3,1]  -2.1045401966454597e-01
    x[1,2]    findWorstP[4,1]  -2.1636845593108020e-01
    x[1,2]    findWorstP[5,1]  -6.6870666780792620e-02
    x[1,3]    allocateEach[3]  1
    x[1,3]    findWorstP[1,2]  2.3138184530151293e-01
    x[1,3]    findWorstP[1,3]  2.3138184530151293e-01
    x[1,3]    findWorstP[1,4]  2.3138184530151293e-01
    x[1,3]    findWorstP[1,5]  2.3138184530151293e-01
    x[1,3]    findWorstP[2,1]  -2.3780165580412191e-01
    x[1,3]    findWorstP[3,1]  -1.4150761519182573e-01
    x[1,3]    findWorstP[4,1]  -1.8915396509829907e-01
    x[1,3]    findWorstP[5,1]  -1.9014807840451939e-01
    x[1,4]    allocateEach[4]  1
    x[1,4]    findWorstP[1,2]  1.9712870232260815e-01
    x[1,4]    findWorstP[1,3]  1.9712870232260815e-01
    x[1,4]    findWorstP[1,4]  1.9712870232260815e-01
    x[1,4]    findWorstP[1,5]  1.9712870232260815e-01
    x[1,4]    findWorstP[2,1]  -1.4773060888967177e-01
    x[1,4]    findWorstP[3,1]  -5.5571621361095044e-02
    x[1,4]    findWorstP[4,1]  -7.2851778219571450e-02
    x[1,4]    findWorstP[5,1]  -1.9198835915432683e-01
    x[1,5]    allocateEach[5]  1
    x[1,5]    findWorstP[1,2]  1.3424248881312596e-02
    x[1,5]    findWorstP[1,3]  1.3424248881312596e-02
    x[1,5]    findWorstP[1,4]  1.3424248881312596e-02
    x[1,5]    findWorstP[1,5]  1.3424248881312596e-02
    x[1,5]    findWorstP[2,1]  -1.3352122599964769e-01
    x[1,5]    findWorstP[3,1]  -1.7454694428378639e-01
    x[1,5]    findWorstP[4,1]  -1.1948310139165011e-01
    x[1,5]    findWorstP[5,1]  -1.4330651373790979e-01
    x[2,1]    allocateEach[1]  1
    x[2,1]    findWorstP[1,2]  -2.5079906243341149e-01
    x[2,1]    findWorstP[2,1]  2.7449944219364690e-02
    x[2,1]    findWorstP[2,3]  2.7449944219364690e-02
    x[2,1]    findWorstP[2,4]  2.7449944219364690e-02
    x[2,1]    findWorstP[2,5]  2.7449944219364690e-02
    x[2,1]    findWorstP[3,2]  -1.7693271640640060e-01
    x[2,1]    findWorstP[4,2]  -1.8124585818422798e-01
    x[2,1]    findWorstP[5,2]  -1.9370024822391513e-01
    x[2,2]    allocateEach[2]  1
    x[2,2]    findWorstP[1,2]  -4.0911996590666952e-02
    x[2,2]    findWorstP[2,1]  1.5991427397099406e-01
    x[2,2]    findWorstP[2,3]  1.5991427397099406e-01
    x[2,2]    findWorstP[2,4]  1.5991427397099406e-01
    x[2,2]    findWorstP[2,5]  1.5991427397099406e-01
    x[2,2]    findWorstP[3,2]  -2.1045401966454597e-01
    x[2,2]    findWorstP[4,2]  -2.1636845593108020e-01
    x[2,2]    findWorstP[5,2]  -6.6870666780792620e-02
    x[2,3]    allocateEach[3]  1
    x[2,3]    findWorstP[1,2]  -2.3138184530151293e-01
    x[2,3]    findWorstP[2,1]  2.3780165580412191e-01
    x[2,3]    findWorstP[2,3]  2.3780165580412191e-01
    x[2,3]    findWorstP[2,4]  2.3780165580412191e-01
    x[2,3]    findWorstP[2,5]  2.3780165580412191e-01
    x[2,3]    findWorstP[3,2]  -1.4150761519182573e-01
    x[2,3]    findWorstP[4,2]  -1.8915396509829907e-01
    x[2,3]    findWorstP[5,2]  -1.9014807840451939e-01
    x[2,4]    allocateEach[4]  1
    x[2,4]    findWorstP[1,2]  -1.9712870232260815e-01
    x[2,4]    findWorstP[2,1]  1.4773060888967177e-01
    x[2,4]    findWorstP[2,3]  1.4773060888967177e-01
    x[2,4]    findWorstP[2,4]  1.4773060888967177e-01
    x[2,4]    findWorstP[2,5]  1.4773060888967177e-01
    x[2,4]    findWorstP[3,2]  -5.5571621361095044e-02
    x[2,4]    findWorstP[4,2]  -7.2851778219571450e-02
    x[2,4]    findWorstP[5,2]  -1.9198835915432683e-01
    x[2,5]    allocateEach[5]  1
    x[2,5]    findWorstP[1,2]  -1.3424248881312596e-02
    x[2,5]    findWorstP[2,1]  1.3352122599964769e-01
    x[2,5]    findWorstP[2,3]  1.3352122599964769e-01
    x[2,5]    findWorstP[2,4]  1.3352122599964769e-01
    x[2,5]    findWorstP[2,5]  1.3352122599964769e-01
    x[2,5]    findWorstP[3,2]  -1.7454694428378639e-01
    x[2,5]    findWorstP[4,2]  -1.1948310139165011e-01
    x[2,5]    findWorstP[5,2]  -1.4330651373790979e-01
    x[3,1]    allocateEach[1]  1
    x[3,1]    findWorstP[1,3]  -2.5079906243341149e-01
    x[3,1]    findWorstP[2,3]  -2.7449944219364690e-02
    x[3,1]    findWorstP[3,1]  1.7693271640640060e-01
    x[3,1]    findWorstP[3,2]  1.7693271640640060e-01
    x[3,1]    findWorstP[3,4]  1.7693271640640060e-01
    x[3,1]    findWorstP[3,5]  1.7693271640640060e-01
    x[3,1]    findWorstP[4,3]  -1.8124585818422798e-01
    x[3,1]    findWorstP[5,3]  -1.9370024822391513e-01
    x[3,2]    allocateEach[2]  1
    x[3,2]    findWorstP[1,3]  -4.0911996590666952e-02
    x[3,2]    findWorstP[2,3]  -1.5991427397099406e-01
    x[3,2]    findWorstP[3,1]  2.1045401966454597e-01
    x[3,2]    findWorstP[3,2]  2.1045401966454597e-01
    x[3,2]    findWorstP[3,4]  2.1045401966454597e-01
    x[3,2]    findWorstP[3,5]  2.1045401966454597e-01
    x[3,2]    findWorstP[4,3]  -2.1636845593108020e-01
    x[3,2]    findWorstP[5,3]  -6.6870666780792620e-02
    x[3,3]    allocateEach[3]  1
    x[3,3]    findWorstP[1,3]  -2.3138184530151293e-01
    x[3,3]    findWorstP[2,3]  -2.3780165580412191e-01
    x[3,3]    findWorstP[3,1]  1.4150761519182573e-01
    x[3,3]    findWorstP[3,2]  1.4150761519182573e-01
    x[3,3]    findWorstP[3,4]  1.4150761519182573e-01
    x[3,3]    findWorstP[3,5]  1.4150761519182573e-01
    x[3,3]    findWorstP[4,3]  -1.8915396509829907e-01
    x[3,3]    findWorstP[5,3]  -1.9014807840451939e-01
    x[3,4]    allocateEach[4]  1
    x[3,4]    findWorstP[1,3]  -1.9712870232260815e-01
    x[3,4]    findWorstP[2,3]  -1.4773060888967177e-01
    x[3,4]    findWorstP[3,1]  5.5571621361095044e-02
    x[3,4]    findWorstP[3,2]  5.5571621361095044e-02
    x[3,4]    findWorstP[3,4]  5.5571621361095044e-02
    x[3,4]    findWorstP[3,5]  5.5571621361095044e-02
    x[3,4]    findWorstP[4,3]  -7.2851778219571450e-02
    x[3,4]    findWorstP[5,3]  -1.9198835915432683e-01
    x[3,5]    allocateEach[5]  1
    x[3,5]    findWorstP[1,3]  -1.3424248881312596e-02
    x[3,5]    findWorstP[2,3]  -1.3352122599964769e-01
    x[3,5]    findWorstP[3,1]  1.7454694428378639e-01
    x[3,5]    findWorstP[3,2]  1.7454694428378639e-01
    x[3,5]    findWorstP[3,4]  1.7454694428378639e-01
    x[3,5]    findWorstP[3,5]  1.7454694428378639e-01
    x[3,5]    findWorstP[4,3]  -1.1948310139165011e-01
    x[3,5]    findWorstP[5,3]  -1.4330651373790979e-01
    x[4,1]    allocateEach[1]  1
    x[4,1]    findWorstP[1,4]  -2.5079906243341149e-01
    x[4,1]    findWorstP[2,4]  -2.7449944219364690e-02
    x[4,1]    findWorstP[3,4]  -1.7693271640640060e-01
    x[4,1]    findWorstP[4,1]  1.8124585818422798e-01
    x[4,1]    findWorstP[4,2]  1.8124585818422798e-01
    x[4,1]    findWorstP[4,3]  1.8124585818422798e-01
    x[4,1]    findWorstP[4,5]  1.8124585818422798e-01
    x[4,1]    findWorstP[5,4]  -1.9370024822391513e-01
    x[4,2]    allocateEach[2]  1
    x[4,2]    findWorstP[1,4]  -4.0911996590666952e-02
    x[4,2]    findWorstP[2,4]  -1.5991427397099406e-01
    x[4,2]    findWorstP[3,4]  -2.1045401966454597e-01
    x[4,2]    findWorstP[4,1]  2.1636845593108020e-01
    x[4,2]    findWorstP[4,2]  2.1636845593108020e-01
    x[4,2]    findWorstP[4,3]  2.1636845593108020e-01
    x[4,2]    findWorstP[4,5]  2.1636845593108020e-01
    x[4,2]    findWorstP[5,4]  -6.6870666780792620e-02
    x[4,3]    allocateEach[3]  1
    x[4,3]    findWorstP[1,4]  -2.3138184530151293e-01
    x[4,3]    findWorstP[2,4]  -2.3780165580412191e-01
    x[4,3]    findWorstP[3,4]  -1.4150761519182573e-01
    x[4,3]    findWorstP[4,1]  1.8915396509829907e-01
    x[4,3]    findWorstP[4,2]  1.8915396509829907e-01
    x[4,3]    findWorstP[4,3]  1.8915396509829907e-01
    x[4,3]    findWorstP[4,5]  1.8915396509829907e-01
    x[4,3]    findWorstP[5,4]  -1.9014807840451939e-01
    x[4,4]    allocateEach[4]  1
    x[4,4]    findWorstP[1,4]  -1.9712870232260815e-01
    x[4,4]    findWorstP[2,4]  -1.4773060888967177e-01
    x[4,4]    findWorstP[3,4]  -5.5571621361095044e-02
    x[4,4]    findWorstP[4,1]  7.2851778219571450e-02
    x[4,4]    findWorstP[4,2]  7.2851778219571450e-02
    x[4,4]    findWorstP[4,3]  7.2851778219571450e-02
    x[4,4]    findWorstP[4,5]  7.2851778219571450e-02
    x[4,4]    findWorstP[5,4]  -1.9198835915432683e-01
    x[4,5]    allocateEach[5]  1
    x[4,5]    findWorstP[1,4]  -1.3424248881312596e-02
    x[4,5]    findWorstP[2,4]  -1.3352122599964769e-01
    x[4,5]    findWorstP[3,4]  -1.7454694428378639e-01
    x[4,5]    findWorstP[4,1]  1.1948310139165011e-01
    x[4,5]    findWorstP[4,2]  1.1948310139165011e-01
    x[4,5]    findWorstP[4,3]  1.1948310139165011e-01
    x[4,5]    findWorstP[4,5]  1.1948310139165011e-01
    x[4,5]    findWorstP[5,4]  -1.4330651373790979e-01
    x[5,1]    allocateEach[1]  1
    x[5,1]    findWorstP[1,5]  -2.5079906243341149e-01
    x[5,1]    findWorstP[2,5]  -2.7449944219364690e-02
    x[5,1]    findWorstP[3,5]  -1.7693271640640060e-01
    x[5,1]    findWorstP[4,5]  -1.8124585818422798e-01
    x[5,1]    findWorstP[5,1]  1.9370024822391513e-01
    x[5,1]    findWorstP[5,2]  1.9370024822391513e-01
    x[5,1]    findWorstP[5,3]  1.9370024822391513e-01
    x[5,1]    findWorstP[5,4]  1.9370024822391513e-01
    x[5,2]    allocateEach[2]  1
    x[5,2]    findWorstP[1,5]  -4.0911996590666952e-02
    x[5,2]    findWorstP[2,5]  -1.5991427397099406e-01
    x[5,2]    findWorstP[3,5]  -2.1045401966454597e-01
    x[5,2]    findWorstP[4,5]  -2.1636845593108020e-01
    x[5,2]    findWorstP[5,1]  6.6870666780792620e-02
    x[5,2]    findWorstP[5,2]  6.6870666780792620e-02
    x[5,2]    findWorstP[5,3]  6.6870666780792620e-02
    x[5,2]    findWorstP[5,4]  6.6870666780792620e-02
    x[5,3]    allocateEach[3]  1
    x[5,3]    findWorstP[1,5]  -2.3138184530151293e-01
    x[5,3]    findWorstP[2,5]  -2.3780165580412191e-01
    x[5,3]    findWorstP[3,5]  -1.4150761519182573e-01
    x[5,3]    findWorstP[4,5]  -1.8915396509829907e-01
    x[5,3]    findWorstP[5,1]  1.9014807840451939e-01
    x[5,3]    findWorstP[5,2]  1.9014807840451939e-01
    x[5,3]    findWorstP[5,3]  1.9014807840451939e-01
    x[5,3]    findWorstP[5,4]  1.9014807840451939e-01
    x[5,4]    allocateEach[4]  1
    x[5,4]    findWorstP[1,5]  -1.9712870232260815e-01
    x[5,4]    findWorstP[2,5]  -1.4773060888967177e-01
    x[5,4]    findWorstP[3,5]  -5.5571621361095044e-02
    x[5,4]    findWorstP[4,5]  -7.2851778219571450e-02
    x[5,4]    findWorstP[5,1]  1.9198835915432683e-01
    x[5,4]    findWorstP[5,2]  1.9198835915432683e-01
    x[5,4]    findWorstP[5,3]  1.9198835915432683e-01
    x[5,4]    findWorstP[5,4]  1.9198835915432683e-01
    x[5,5]    allocateEach[5]  1
    x[5,5]    findWorstP[1,5]  -1.3424248881312596e-02
    x[5,5]    findWorstP[2,5]  -1.3352122599964769e-01
    x[5,5]    findWorstP[3,5]  -1.7454694428378639e-01
    x[5,5]    findWorstP[4,5]  -1.1948310139165011e-01
    x[5,5]    findWorstP[5,1]  1.4330651373790979e-01
    x[5,5]    findWorstP[5,2]  1.4330651373790979e-01
    x[5,5]    findWorstP[5,3]  1.4330651373790979e-01
    x[5,5]    findWorstP[5,4]  1.4330651373790979e-01
    MARKER    'MARKER'                 'INTEND'
RHS
    RHS1      allocateEach[1]  1
    RHS1      allocateEach[2]  1
    RHS1      allocateEach[3]  1
    RHS1      allocateEach[4]  1
    RHS1      allocateEach[5]  1
    RHS1      allocateAllCash  1
BOUNDS
 UP BND1      z         1
 MI BND1      cashProportion[1]
 UP BND1      cashProportion[1]  1
 MI BND1      cashProportion[2]
 UP BND1      cashProportion[2]  1
 MI BND1      cashProportion[3]
 UP BND1      cashProportion[3]  1
 MI BND1      cashProportion[4]
 UP BND1      cashProportion[4]  1
 MI BND1      cashProportion[5]
 UP BND1      cashProportion[5]  1
 BV BND1      x[1,1]  
 BV BND1      x[1,2]  
 BV BND1      x[1,3]  
 BV BND1      x[1,4]  
 BV BND1      x[1,5]  
 BV BND1      x[2,1]  
 BV BND1      x[2,2]  
 BV BND1      x[2,3]  
 BV BND1      x[2,4]  
 BV BND1      x[2,5]  
 BV BND1      x[3,1]  
 BV BND1      x[3,2]  
 BV BND1      x[3,3]  
 BV BND1      x[3,4]  
 BV BND1      x[3,5]  
 BV BND1      x[4,1]  
 BV BND1      x[4,2]  
 BV BND1      x[4,3]  
 BV BND1      x[4,4]  
 BV BND1      x[4,5]  
 BV BND1      x[5,1]  
 BV BND1      x[5,2]  
 BV BND1      x[5,3]  
 BV BND1      x[5,4]  
 BV BND1      x[5,5]  
ENDATA
